GLPSOL--GLPK LP/MIP Solver 5.0
Parameter(s) specified in the command line:
 --lp ./Instances/small/optimizedinstance61.lp -o ./Instances/small/solutions/optimizedinstance61.out
 --log ./Instances/small/solutions/optimizedinstance61.glplog
Reading problem data from './Instances/small/optimizedinstance61.lp'...
372 rows, 375 columns, 27166 non-zeros
375 integer variables, all of which are binary
752 lines were read
GLPK Integer Optimizer 5.0
372 rows, 375 columns, 27166 non-zeros
375 integer variables, all of which are binary
Preprocessing...
372 rows, 375 columns, 27166 non-zeros
375 integer variables, all of which are binary
Scaling...
 A: min|aij| =  1.000e+00  max|aij| =  1.680e+02  ratio =  1.680e+02
GM: min|aij| =  7.821e-02  max|aij| =  1.279e+01  ratio =  1.635e+02
EQ: min|aij| =  6.116e-03  max|aij| =  1.000e+00  ratio =  1.635e+02
2N: min|aij| =  3.906e-03  max|aij| =  1.750e+00  ratio =  4.480e+02
Constructing initial basis...
Size of triangular part is 372
Solving LP relaxation...
GLPK Simplex Optimizer 5.0
372 rows, 375 columns, 27166 non-zeros
*     0: obj =  -0.000000000e+00 inf =   0.000e+00 (375)
*   331: obj =   2.224325871e+03 inf =   0.000e+00 (0) 2
OPTIMAL LP SOLUTION FOUND
Integer optimization begins...
Long-step dual simplex will be used
+   331: mip =     not found yet <=              +inf        (1; 0)
+   790: >>>>>   1.020000000e+02 <=   2.189000000e+03        (135; 0)
+  1480: mip =   1.020000000e+02 <=   2.170000000e+03        (260; 4)
+  1671: >>>>>   1.130000000e+02 <=   2.170000000e+03        (324; 4)
+  2435: mip =   1.130000000e+02 <=   2.169000000e+03        (466; 10)
+  3098: mip =   1.130000000e+02 <=   2.155000000e+03        (611; 12)
+  3586: mip =   1.130000000e+02 <=   2.150000000e+03        (766; 13)
+  4054: mip =   1.130000000e+02 <=   2.148000000e+03        (925; 14)
+  4499: >>>>>   1.140000000e+02 <=   2.141000000e+03        (1015; 15)
+  5184: mip =   1.140000000e+02 <=   2.135000000e+03        (1151; 17)
+  5953: mip =   1.140000000e+02 <=   2.134000000e+03        (1404; 19)
+  6723: mip =   1.140000000e+02 <=   2.129000000e+03        (1565; 21)
+  7598: mip =   1.140000000e+02 <=   2.118000000e+03        (1733; 23)
+  8333: mip =   1.140000000e+02 <=   2.109000000e+03        (1896; 25)
Time used: 60.0 secs.  Memory used: 6.0 Mb.
+  8975: mip =   1.140000000e+02 <=   2.107000000e+03        (2065; 27)
+  9740: mip =   1.140000000e+02 <=   2.083000000e+03        (2230; 28)
+ 10506: mip =   1.140000000e+02 <=   2.078000000e+03        (2399; 30)
+ 11195: mip =   1.140000000e+02 <=   2.060000000e+03        (2556; 32)
+ 11760: mip =   1.140000000e+02 <=   2.059000000e+03        (2730; 34)
+ 12355: mip =   1.140000000e+02 <=   2.056000000e+03        (2878; 35)
+ 12936: mip =   1.140000000e+02 <=   2.046000000e+03        (3033; 37)
+ 13487: mip =   1.140000000e+02 <=   2.042000000e+03        (3199; 38)
+ 14489: mip =   1.140000000e+02 <=   2.029000000e+03        (3364; 41)
+ 15244: mip =   1.140000000e+02 <=   2.021000000e+03        (3545; 43)
+ 15969: mip =   1.140000000e+02 <=   2.009000000e+03        (3715; 45)
+ 16751: mip =   1.140000000e+02 <=   1.999000000e+03        (3884; 47)
Time used: 120.0 secs.  Memory used: 7.4 Mb.
+ 17599: mip =   1.140000000e+02 <=   1.995000000e+03        (4079; 49)
+ 18295: mip =   1.140000000e+02 <=   1.987000000e+03        (4253; 51)
+ 19033: mip =   1.140000000e+02 <=   1.985000000e+03        (4423; 53)
+ 19772: mip =   1.140000000e+02 <=   1.973000000e+03        (4595; 55)
+ 20568: mip =   1.140000000e+02 <=   1.963000000e+03        (4763; 57)
+ 21207: mip =   1.140000000e+02 <=   1.955000000e+03        (4944; 59)
+ 21843: mip =   1.140000000e+02 <=   1.952000000e+03        (5122; 60)
+ 22501: mip =   1.140000000e+02 <=   1.939000000e+03        (5310; 62)
+ 23461: mip =   1.140000000e+02 <=   1.926000000e+03        (5487; 65)
+ 24217: mip =   1.140000000e+02 <=   1.917000000e+03        (5676; 67)
+ 24831: mip =   1.140000000e+02 <=   1.900000000e+03        (5859; 69)
+ 25390: mip =   1.140000000e+02 <=   1.897000000e+03        (6006; 70)
Time used: 180.0 secs.  Memory used: 8.9 Mb.
+ 25896: mip =   1.140000000e+02 <=   1.881000000e+03        (6161; 72)
+ 26398: mip =   1.140000000e+02 <=   1.880000000e+03        (6308; 73)
+ 27011: mip =   1.140000000e+02 <=   1.870000000e+03        (6466; 75)
+ 27393: mip =   1.140000000e+02 <=   1.868000000e+03        (6610; 76)
+ 27796: mip =   1.140000000e+02 <=   1.858000000e+03        (6737; 77)
+ 28366: mip =   1.140000000e+02 <=   1.843000000e+03        (6862; 79)
+ 28840: mip =   1.140000000e+02 <=   1.842000000e+03        (6970; 80)
+ 29194: mip =   1.140000000e+02 <=   1.840000000e+03        (7094; 81)
+ 29883: mip =   1.140000000e+02 <=   1.835000000e+03        (7249; 83)
+ 30588: mip =   1.140000000e+02 <=   1.820000000e+03        (7474; 85)
+ 31650: mip =   1.140000000e+02 <=   1.800000000e+03        (7666; 89)
+ 32441: mip =   1.140000000e+02 <=   1.785000000e+03        (7834; 91)
Time used: 240.0 secs.  Memory used: 10.0 Mb.
+ 33050: mip =   1.140000000e+02 <=   1.772000000e+03        (7982; 93)
+ 33571: mip =   1.140000000e+02 <=   1.766000000e+03        (8120; 95)
+ 34106: mip =   1.140000000e+02 <=   1.765000000e+03        (8270; 97)
+ 35275: mip =   1.140000000e+02 <=   1.757000000e+03        (8537; 101)
+ 35876: mip =   1.140000000e+02 <=   1.756000000e+03        (8766; 103)
+ 36540: mip =   1.140000000e+02 <=   1.755000000e+03        (8960; 105)
+ 36967: mip =   1.140000000e+02 <=   1.755000000e+03        (9099; 106)
+ 37561: mip =   1.140000000e+02 <=   1.753000000e+03        (9229; 108)
+ 38082: mip =   1.140000000e+02 <=   1.752000000e+03        (9393; 110)
+ 38740: mip =   1.140000000e+02 <=   1.748000000e+03        (9553; 112)
+ 39387: mip =   1.140000000e+02 <=   1.745000000e+03        (9725; 114)
+ 40189: mip =   1.140000000e+02 <=   1.740000000e+03        (9895; 117)
Time used: 300.0 secs.  Memory used: 11.3 Mb.
+ 40857: mip =   1.140000000e+02 <=   1.738000000e+03        (10058; 119)
+ 41519: mip =   1.140000000e+02 <=   1.732000000e+03        (10229; 121)
+ 42114: mip =   1.140000000e+02 <=   1.729000000e+03        (10394; 123)
+ 42821: mip =   1.140000000e+02 <=   1.726000000e+03        (10569; 126)
+ 43279: mip =   1.140000000e+02 <=   1.726000000e+03        (10725; 127)
+ 43784: mip =   1.140000000e+02 <=   1.722000000e+03        (10888; 129)
+ 44426: mip =   1.140000000e+02 <=   1.721000000e+03        (11052; 131)
+ 44989: mip =   1.140000000e+02 <=   1.720000000e+03        (11217; 133)
+ 45522: mip =   1.140000000e+02 <=   1.716000000e+03        (11378; 135)
+ 46281: mip =   1.140000000e+02 <=   1.714000000e+03        (11551; 138)
+ 47011: mip =   1.140000000e+02 <=   1.712000000e+03        (11804; 140)
+ 47808: mip =   1.140000000e+02 <=   1.710000000e+03        (12034; 143)
Time used: 360.0 secs.  Memory used: 12.9 Mb.
+ 48541: mip =   1.140000000e+02 <=   1.706000000e+03        (12227; 145)
+ 49233: mip =   1.140000000e+02 <=   1.704000000e+03        (12439; 148)
+ 50123: mip =   1.140000000e+02 <=   1.702000000e+03        (12645; 151)
+ 50758: mip =   1.140000000e+02 <=   1.701000000e+03        (12832; 153)
+ 51550: mip =   1.140000000e+02 <=   1.700000000e+03        (13066; 156)
+ 52197: mip =   1.140000000e+02 <=   1.700000000e+03        (13268; 158)
+ 53098: mip =   1.140000000e+02 <=   1.698000000e+03        (13486; 161)
+ 53808: mip =   1.140000000e+02 <=   1.697000000e+03        (13698; 163)
+ 54322: mip =   1.140000000e+02 <=   1.697000000e+03        (13904; 165)
+ 55082: mip =   1.140000000e+02 <=   1.693000000e+03        (14105; 168)
+ 55795: mip =   1.140000000e+02 <=   1.691000000e+03        (14305; 170)
+ 56357: mip =   1.140000000e+02 <=   1.691000000e+03        (14517; 172)
Time used: 420.1 secs.  Memory used: 14.3 Mb.
+ 57181: mip =   1.140000000e+02 <=   1.690000000e+03        (14743; 175)
+ 58083: mip =   1.140000000e+02 <=   1.688000000e+03        (14960; 179)
+ 58797: mip =   1.140000000e+02 <=   1.686000000e+03        (15183; 181)
+ 59545: mip =   1.140000000e+02 <=   1.685000000e+03        (15395; 184)
+ 60304: mip =   1.140000000e+02 <=   1.684000000e+03        (15635; 187)
+ 60771: >>>>>   1.150000000e+02 <=   1.684000000e+03        (15781; 188)
+ 61474: mip =   1.150000000e+02 <=   1.682000000e+03        (15960; 231)
+ 61939: mip =   1.150000000e+02 <=   1.682000000e+03        (16125; 232)
+ 63083: mip =   1.150000000e+02 <=   1.675000000e+03        (16453; 236)
+ 63706: mip =   1.150000000e+02 <=   1.674000000e+03        (16621; 238)
+ 63827: >>>>>   1.230000000e+02 <=   1.674000000e+03        (16677; 238)
+ 64520: mip =   1.230000000e+02 <=   1.672000000e+03        (16689; 525)
+ 65072: mip =   1.230000000e+02 <=   1.670000000e+03        (16844; 527)
Time used: 480.1 secs.  Memory used: 15.7 Mb.
+ 65600: mip =   1.230000000e+02 <=   1.669000000e+03        (17007; 529)
+ 66045: mip =   1.230000000e+02 <=   1.668000000e+03        (17169; 530)
+ 66849: mip =   1.230000000e+02 <=   1.664000000e+03        (17347; 533)
+ 67365: mip =   1.230000000e+02 <=   1.661000000e+03        (17501; 535)
+ 67897: mip =   1.230000000e+02 <=   1.658000000e+03        (17654; 537)
+ 68457: mip =   1.230000000e+02 <=   1.658000000e+03        (17794; 539)
+ 69010: mip =   1.230000000e+02 <=   1.656000000e+03        (17951; 541)
+ 69393: mip =   1.230000000e+02 <=   1.656000000e+03        (18114; 542)
+ 69958: mip =   1.230000000e+02 <=   1.653000000e+03        (18273; 544)
+ 70608: mip =   1.230000000e+02 <=   1.652000000e+03        (18436; 546)
+ 71285: mip =   1.230000000e+02 <=   1.649000000e+03        (18590; 549)
+ 71897: mip =   1.230000000e+02 <=   1.648000000e+03        (18745; 551)
Time used: 540.1 secs.  Memory used: 16.8 Mb.
+ 72533: mip =   1.230000000e+02 <=   1.646000000e+03        (18913; 553)
+ 73029: mip =   1.230000000e+02 <=   1.645000000e+03        (19062; 555)
+ 73547: mip =   1.230000000e+02 <=   1.645000000e+03        (19225; 557)
+ 73960: mip =   1.230000000e+02 <=   1.644000000e+03        (19382; 558)
+ 74340: mip =   1.230000000e+02 <=   1.643000000e+03        (19556; 559)
+ 74855: mip =   1.230000000e+02 <=   1.642000000e+03        (19728; 561)
+ 75516: mip =   1.230000000e+02 <=   1.640000000e+03        (19879; 564)
+ 76114: mip =   1.230000000e+02 <=   1.640000000e+03        (20044; 566)
+ 76785: mip =   1.230000000e+02 <=   1.638000000e+03        (20211; 568)
+ 77256: mip =   1.230000000e+02 <=   1.638000000e+03        (20376; 570)
+ 77735: mip =   1.230000000e+02 <=   1.636000000e+03        (20545; 572)
Time used: 600.1 secs.  Memory used: 18.5 Mb.
+ 78143: mip =   1.230000000e+02 <=   1.635000000e+03        (20708; 573)
+ 78835: mip =   1.230000000e+02 <=   1.635000000e+03        (20876; 576)
+ 79424: mip =   1.230000000e+02 <=   1.634000000e+03        (21055; 578)
+ 80003: mip =   1.230000000e+02 <=   1.634000000e+03        (21208; 580)
+ 80494: mip =   1.230000000e+02 <=   1.632000000e+03        (21376; 582)
+ 81125: mip =   1.230000000e+02 <=   1.631000000e+03        (21536; 584)
+ 81789: mip =   1.230000000e+02 <=   1.628000000e+03        (21696; 587)
+ 82320: mip =   1.230000000e+02 <=   1.627000000e+03        (21867; 589)
+ 82828: mip =   1.230000000e+02 <=   1.626000000e+03        (22039; 591)
+ 83381: mip =   1.230000000e+02 <=   1.623000000e+03        (22211; 593)
+ 84141: mip =   1.230000000e+02 <=   1.619000000e+03        (22383; 596)
+ 84646: mip =   1.230000000e+02 <=   1.618000000e+03        (22552; 598)
Time used: 660.2 secs.  Memory used: 19.7 Mb.
+ 85383: mip =   1.230000000e+02 <=   1.616000000e+03        (22719; 601)
+ 86012: mip =   1.230000000e+02 <=   1.616000000e+03        (22879; 603)
+ 86539: mip =   1.230000000e+02 <=   1.615000000e+03        (23033; 605)
+ 87050: mip =   1.230000000e+02 <=   1.615000000e+03        (23186; 607)
+ 87580: mip =   1.230000000e+02 <=   1.615000000e+03        (23355; 609)
+ 88294: mip =   1.230000000e+02 <=   1.612000000e+03        (23529; 612)
+ 88840: mip =   1.230000000e+02 <=   1.610000000e+03        (23696; 614)
+ 89352: mip =   1.230000000e+02 <=   1.609000000e+03        (23865; 616)
+ 90136: mip =   1.230000000e+02 <=   1.607000000e+03        (24025; 619)
+ 90676: mip =   1.230000000e+02 <=   1.606000000e+03        (24188; 621)
+ 91760: mip =   1.230000000e+02 <=   1.603000000e+03        (24493; 625)
+ 92486: mip =   1.230000000e+02 <=   1.603000000e+03        (24687; 628)
Time used: 720.2 secs.  Memory used: 21.0 Mb.
+ 93286: mip =   1.230000000e+02 <=   1.601000000e+03        (24868; 631)
+ 94220: mip =   1.230000000e+02 <=   1.600000000e+03        (25095; 634)
+ 95142: mip =   1.230000000e+02 <=   1.599000000e+03        (25298; 638)
+ 95851: mip =   1.230000000e+02 <=   1.596000000e+03        (25501; 641)
+ 96477: mip =   1.230000000e+02 <=   1.595000000e+03        (25693; 643)
+ 97042: mip =   1.230000000e+02 <=   1.594000000e+03        (25908; 646)
+ 97753: mip =   1.230000000e+02 <=   1.593000000e+03        (26103; 648)
+ 98290: mip =   1.230000000e+02 <=   1.591000000e+03        (26292; 650)
+ 99236: mip =   1.230000000e+02 <=   1.590000000e+03        (26497; 654)
+ 99842: mip =   1.230000000e+02 <=   1.589000000e+03        (26696; 656)
+100560: mip =   1.230000000e+02 <=   1.588000000e+03        (26914; 659)
+101154: mip =   1.230000000e+02 <=   1.587000000e+03        (27101; 661)
Time used: 780.2 secs.  Memory used: 22.5 Mb.
+101838: mip =   1.230000000e+02 <=   1.586000000e+03        (27305; 664)
+102436: mip =   1.230000000e+02 <=   1.585000000e+03        (27491; 666)
+103093: mip =   1.230000000e+02 <=   1.582000000e+03        (27702; 668)
